NAME: Car54R33
TYPE: TSP
COMMENT: Generated by CtoK writeTSPFile
DIMENSION: 33
EDGE_WEIGHT_TYPE: EUC_2D
NODE_COORD_SECTION
1 -87.6232 41.8818
2 -117.001 46.3999
3 -122.673 45.4963
4 -112.535 46.0038
5 -116.202 43.615
6 -114.47 42.5558
7 -119.814 39.5296
8 -122.392 40.5865
9 -118.063 36.606
10 -120.999 37.2577
11 -111.891 40.7608
12 -109.867 37.1519
13 -111.637 36.8162
14 -104.821 38.8339
15 -107.253 33.1284
16 -108.994 35.4221
17 -101.831 35.222
18 -97.3301 37.6872
19 -96.7026 40.8136
20 -99.9921 44.5122
21 -91.2519 43.8138
22 -94.5786 39.0997
23 -92.2896 34.7465
24 -91.1871 30.4515
25 -81.3587 33.2449
26 -85.3097 35.0456
27 -81.1606 36.146
28 -84.5755 30.9038
29 -86.148 39.791
30 -83.1285 40.5887
31 -80.0851 42.0292
32 -77.2003 40.201
33 -80.2983 39.7031
